46563.15
102 105 104 0 106 103 1 52 53 51 50 47 2 45 48 49 46 44 41 43 42 3 40 4 37 38 39 36 35 5 32 33 34 31 30 6 27 28 29 26 25 7 22 23 24 21 20 19 17 18 15 14 11 13 12 10 9 16 8 62 63 60 58 55 59 54 57 56 61 64 65 69 68 66 67 70 71 72 75 74 73 76 77 78 81 80 79 82 83 84 87 86 85 88 89 90 93 92 91 94 95 97 100 101 96 98 99